JulietBench/Juliet_Based_Patch_Bench/linux/CWE-190-Integer-Overflow-or-Wraparound/CVE_2016_8636_647bf3d8a8e5777319da92af672289b2a6c4dc66/Resultmem_check_range_patch1NEQ.smt2
; benchmark generated from python API
(set-info :status unknown)
(declare-fun R () (_ BitVec 32))
(declare-fun rdi () (_ BitVec 64))
(declare-fun rcx () (_ BitVec 64))
(declare-fun rsi () (_ BitVec 64))
(declare-fun r8 () (_ BitVec 64))
(declare-fun rdx () (_ BitVec 64))
(assert
 (let (($x1884 (= (_ bv0 32) R)))
 (let ((?x6 ((_ extract 31 0) rdi)))
 (let (($x11 (= (_ bv1 32) ?x6)))
 (let (($x3329 (and $x11 $x1884)))
 (let (($x1888 (= (_ bv4294967212 32) R)))
 (let (($x46 (= (_ bv0 32) ?x6)))
 (let (($x2678 (and $x46 $x1888)))
 (let (($x37 (and (distinct (_ bv1 32) ?x6) true)))
 (let (($x118 (and (distinct (_ bv0 32) ?x6) true)))
 (let ((?x42 (bvsub ?x6 (_ bv2 32))))
 (let (($x184 (bvugt ?x42 (_ bv1 32))))
 (let (($x2677 (and $x184 $x118 $x37 $x1888)))
 (let (($x47 (bvule ?x42 (_ bv1 32))))
 (let (($x185 (bvult rsi rcx)))
 (let (($x2674 (and $x185 $x47 $x118 $x37 $x1888)))
 (let (($x206 (bvuge rsi rcx)))
 (let (($x1889 (bvugt rdx r8)))
 (let (($x3339 (and $x1889 $x206 $x47 $x118 $x37 $x1888)))
 (let (($x1879 (bvule rdx r8)))
 (let ((?x216 (bvadd r8 rcx)))
 (let ((?x1901 (bvsub ?x216 rdx)))
 (let (($x1903 (bvule rsi ?x1901)))
 (let (($x3342 (and $x1903 $x1879 $x206 $x47 $x118 $x37 $x1884)))
 (let (($x1908 (bvugt rsi ?x1901)))
 (let (($x3341 (and $x1908 $x1879 $x206 $x47 $x118 $x37 $x1888)))
 (let (($x3340 (or $x3341 $x3342 $x3339 $x2674 $x2677 $x2678 $x3329)))
 (let (($x3343 (not $x3340)))
 (let ((?x214 (bvadd rsi rdx)))
 (let (($x217 (bvule ?x214 ?x216)))
 (let (($x1886 (and $x217 $x206 $x47 $x118 $x37 $x1884)))
 (let (($x1864 (bvugt ?x214 ?x216)))
 (let (($x1882 (and $x1864 $x206 $x47 $x118 $x37 $x1888)))
 (let (($x3330 (or $x1882 $x1886 $x2674 $x2677 $x2678 $x3329)))
 (let (($x3332 (not $x3330)))
 (let (($x3344 (and $x3332 $x3343)))
 (let (($x3331 (and $x3330 $x3340)))
 (let (($x3355 (or $x3331 $x3344)))
 (not $x3355)))))))))))))))))))))))))))))))))))))))
(check-sat)
